NAME: tsp_331
COMMENT: Random TSP instance
TYPE: TSP
DIMENSION: 50
EDGE_WEIGHT_TYPE: EUC_2D
NODE_COORD_SECTION
1 232 469
2 778 67
3 930 501
4 48 352
5 151 660
6 569 499
7 169 469
8 76 966
9 541 253
10 208 568
11 283 331
12 739 600
13 113 760
14 98 956
15 284 909
16 80 454
17 890 741
18 68 161
19 158 641
20 396 996
21 716 563
22 330 770
23 670 881
24 555 798
25 13 620
26 488 462
27 421 148
28 6 132
29 453 101
30 446 926
31 655 87
32 511 340
33 2 845
34 404 576
35 607 463
36 250 680
37 236 159
38 91 256
39 821 12
40 990 1000
41 944 310
42 174 706
43 934 309
44 195 478
45 800 307
46 533 987
47 684 188
48 719 765
49 615 443
50 477 124
